42 44
1 23
1 23
1 23
1 23
1 23
1 23
1 23
1 23
1 23
1 23
1 23
1 23
1 23
1 23
1 23
1 23
1 23
1 23
1 23
1 23
1 23
45 23
45 23
45 23
45 23
45 23
45 23
45 23
45 23
45 23
45 23
45 23
45 23
45 23
45 23
45 23
45 23
45 23
45 23
45 23
45 23
45 23
